nat_inputs/AUFLIA/20170829-Rodin/smt348629254771220058.smt2
(set-info :smt-lib-version 2.6)
(set-logic ALL)
(declare-sort Nat$ 0)
(declare-fun to_int$ (Nat$) Int)
(set-info :source |Generator: Rodin SMT Plug-in|)
(set-info :license "https://creativecommons.org/licenses/by-nc/4.0/")
(set-info :category "industrial")
(set-info :status unknown)
(declare-sort A 0)
(declare-sort PA 0)
(declare-sort PZA 0)
(declare-fun MS (Int A PZA) Bool)
(declare-fun MS0 (A PA) Bool)
(declare-fun cnc (PZA PZA PZA) Bool)
(declare-fun length (PZA Int) Bool)
(declare-fun seq (PZA) Bool)
(declare-fun i () Int)
(declare-fun s1 () PZA)
(declare-fun s2 () PZA)
(assert (forall ((x434 A)) (exists ((X PA)) (and (MS0 x434 X) (forall ((y A)) (=> (MS0 y X) (= y x434)))))))
(assert (forall ((x435 Int) (x436 A)) (exists ((X0 PZA)) (and (MS x435 x436 X0) (forall ((y0 Int) (y1 A)) (=> (MS y0 y1 X0) (and (= y0 x435) (= y1 x436))))))))
(assert (! (forall ((x PZA)) (= (seq x) (exists ((s PZA)) (and (exists ((n Nat$)) (and (<= 0 (to_int$ n)) (forall ((x0 Int) (x1 A)) (=> (MS x0 x1 s) (and (<= 1 x0) (<= x0 (to_int$ n))))) (forall ((x2 Int) (x3 A) (x4 A)) (=> (and (MS x2 x3 s) (MS x2 x4 s)) (= x3 x4))) (forall ((x5 Int)) (=> (and (<= 1 x5) (<= x5 (to_int$ n))) (exists ((x6 A)) (MS x5 x6 s)))))) (forall ((x7 Int) (x8 A)) (= (MS x7 x8 x) (MS x7 x8 s))))))) :named hyp1))
(assert (! (forall ((n0 Nat$) (s0 PZA)) (=> (and (<= 0 (to_int$ n0)) (forall ((x9 Int) (x10 A)) (=> (MS x9 x10 s0) (and (<= 1 x9) (<= x9 (to_int$ n0))))) (forall ((x11 Int) (x12 A) (x13 A)) (=> (and (MS x11 x12 s0) (MS x11 x13 s0)) (= x12 x13))) (forall ((x14 Int)) (=> (and (<= 1 x14) (<= x14 (to_int$ n0))) (exists ((x15 A)) (MS x14 x15 s0))))) (length s0 (to_int$ n0)))) :named hyp2))
(assert (! (and (forall ((x16 Int)) (=> (length s1 x16) (<= (+ x16 1) i))) (forall ((x17 Int) (x18 Int)) (=> (and (length s1 x18) (length s2 x17)) (<= i (+ x18 x17))))) :named hyp3))
(assert (! (and (forall ((x19 PZA) (x20 Nat$)) (=> (length x19 (to_int$ x20)) (and (exists ((s3 PZA)) (and (exists ((n1 Nat$)) (and (<= 0 (to_int$ n1)) (forall ((x21 Int) (x22 A)) (=> (MS x21 x22 s3) (and (<= 1 x21) (<= x21 (to_int$ n1))))) (forall ((x23 Int) (x24 A) (x25 A)) (=> (and (MS x23 x24 s3) (MS x23 x25 s3)) (= x24 x25))) (forall ((x26 Int)) (=> (and (<= 1 x26) (<= x26 (to_int$ n1))) (exists ((x27 A)) (MS x26 x27 s3)))))) (forall ((x28 Int) (x29 A)) (= (MS x28 x29 x19) (MS x28 x29 s3))))) (<= 0 (to_int$ x20))))) (forall ((x30 PZA) (x31 Int) (x32 Int)) (=> (and (length x30 x31) (length x30 x32)) (= x31 x32))) (forall ((x33 PZA)) (=> (exists ((s4 PZA)) (and (exists ((n2 Nat$)) (and (<= 0 (to_int$ n2)) (forall ((x34 Int) (x35 A)) (=> (MS x34 x35 s4) (and (<= 1 x34) (<= x34 (to_int$ n2))))) (forall ((x36 Int) (x37 A) (x38 A)) (=> (and (MS x36 x37 s4) (MS x36 x38 s4)) (= x37 x38))) (forall ((x39 Int)) (=> (and (<= 1 x39) (<= x39 (to_int$ n2))) (exists ((x40 A)) (MS x39 x40 s4)))))) (forall ((x41 Int) (x42 A)) (= (MS x41 x42 x33) (MS x41 x42 s4))))) (exists ((x43 Int)) (length x33 x43))))) :named hyp4))
(assert (! (forall ((n3 Nat$) (s5 PZA)) (=> (and (<= 0 (to_int$ n3)) (forall ((x44 Int) (x45 A)) (=> (MS x44 x45 s5) (and (<= 1 x44) (<= x44 (to_int$ n3))))) (forall ((x46 Int) (x47 A) (x48 A)) (=> (and (MS x46 x47 s5) (MS x46 x48 s5)) (= x47 x48))) (forall ((x49 Int)) (=> (and (<= 1 x49) (<= x49 (to_int$ n3))) (exists ((x50 A)) (MS x49 x50 s5))))) (exists ((n4 Nat$)) (and (<= 0 (to_int$ n4)) (forall ((x51 Int) (x52 A)) (=> (MS x51 x52 s5) (and (<= 1 x51) (<= x51 (to_int$ n4))))) (forall ((x53 Int) (x54 A) (x55 A)) (=> (and (MS x53 x54 s5) (MS x53 x55 s5)) (= x54 x55))) (forall ((x56 Int)) (=> (and (<= 1 x56) (<= x56 (to_int$ n4))) (exists ((x57 A)) (MS x56 x57 s5)))))))) :named hyp5))
(assert (! (forall ((s6 PZA)) (=> (exists ((n5 Nat$)) (and (<= 0 (to_int$ n5)) (forall ((x58 Int) (x59 A)) (=> (MS x58 x59 s6) (and (<= 1 x58) (<= x58 (to_int$ n5))))) (forall ((x60 Int) (x61 A) (x62 A)) (=> (and (MS x60 x61 s6) (MS x60 x62 s6)) (= x61 x62))) (forall ((x63 Int)) (=> (and (<= 1 x63) (<= x63 (to_int$ n5))) (exists ((x64 A)) (MS x63 x64 s6)))))) (and (forall ((x65 Int) (x66 A)) (=> (MS x65 x66 s6) (and (<= 1 x65) (forall ((x67 Int)) (=> (length s6 x67) (<= x65 x67)))))) (forall ((x68 Int) (x69 A) (x70 A)) (=> (and (MS x68 x69 s6) (MS x68 x70 s6)) (= x69 x70))) (forall ((x71 Int)) (=> (and (<= 1 x71) (forall ((x72 Int)) (=> (length s6 x72) (<= x71 x72)))) (exists ((x73 A)) (MS x71 x73 s6))))))) :named hyp6))
(assert (! (forall ((x74 PZA) (x75 PZA) (x76 PZA)) (= (cnc x74 x75 x76) (exists ((s10 PZA) (s20 PZA)) (and (exists ((n6 Nat$)) (and (<= 0 (to_int$ n6)) (forall ((x77 Int) (x78 A)) (=> (MS x77 x78 s10) (and (<= 1 x77) (<= x77 (to_int$ n6))))) (forall ((x79 Int) (x80 A) (x81 A)) (=> (and (MS x79 x80 s10) (MS x79 x81 s10)) (= x80 x81))) (forall ((x82 Int)) (=> (and (<= 1 x82) (<= x82 (to_int$ n6))) (exists ((x83 A)) (MS x82 x83 s10)))))) (exists ((n7 Nat$)) (and (<= 0 (to_int$ n7)) (forall ((x84 Int) (x85 A)) (=> (MS x84 x85 s20) (and (<= 1 x84) (<= x84 (to_int$ n7))))) (forall ((x86 Int) (x87 A) (x88 A)) (=> (and (MS x86 x87 s20) (MS x86 x88 s20)) (= x87 x88))) (forall ((x89 Int)) (=> (and (<= 1 x89) (<= x89 (to_int$ n7))) (exists ((x90 A)) (MS x89 x90 s20)))))) (forall ((x91 Int) (x92 A)) (= (MS x91 x92 x74) (MS x91 x92 s10))) (forall ((x93 Int) (x94 A)) (= (MS x93 x94 x75) (MS x93 x94 s20))) (forall ((x95 Int) (x96 A)) (= (MS x95 x96 x76) (or (exists ((i0 Int)) (and (<= 1 i0) (forall ((x97 Int)) (=> (length s10 x97) (<= i0 x97))) (= x95 i0) (MS i0 x96 s10))) (exists ((i1 Int)) (and (forall ((x98 Int)) (=> (length s10 x98) (<= (+ x98 1) i1))) (forall ((x99 Int) (x100 Int)) (=> (and (length s10 x100) (length s20 x99)) (<= i1 (+ x100 x99)))) (= x95 i1) (exists ((x101 Int)) (and (forall ((x102 Int)) (=> (length s10 x102) (= x101 (- i1 x102)))) (MS x101 x96 s20)))))))))))) :named hyp7))
(assert (! (exists ((n8 Nat$)) (and (<= 0 (to_int$ n8)) (forall ((x103 Int) (x104 A)) (=> (MS x103 x104 s1) (and (<= 1 x103) (<= x103 (to_int$ n8))))) (forall ((x105 Int) (x106 A) (x107 A)) (=> (and (MS x105 x106 s1) (MS x105 x107 s1)) (= x106 x107))) (forall ((x108 Int)) (=> (and (<= 1 x108) (<= x108 (to_int$ n8))) (exists ((x109 A)) (MS x108 x109 s1)))))) :named hyp8))
(assert (! (exists ((n9 Nat$)) (and (<= 0 (to_int$ n9)) (forall ((x110 Int) (x111 A)) (=> (MS x110 x111 s2) (and (<= 1 x110) (<= x110 (to_int$ n9))))) (forall ((x112 Int) (x113 A) (x114 A)) (=> (and (MS x112 x113 s2) (MS x112 x114 s2)) (= x113 x114))) (forall ((x115 Int)) (=> (and (<= 1 x115) (<= x115 (to_int$ n9))) (exists ((x116 A)) (MS x115 x116 s2)))))) :named hyp9))
(assert (! (and (forall ((x117 PZA) (x118 PZA) (x119 PZA)) (=> (exists ((s11 PZA) (s21 PZA)) (and (exists ((n10 Nat$)) (and (<= 0 (to_int$ n10)) (forall ((x120 Int) (x121 A)) (=> (MS x120 x121 s11) (and (<= 1 x120) (<= x120 (to_int$ n10))))) (forall ((x122 Int) (x123 A) (x124 A)) (=> (and (MS x122 x123 s11) (MS x122 x124 s11)) (= x123 x124))) (forall ((x125 Int)) (=> (and (<= 1 x125) (<= x125 (to_int$ n10))) (exists ((x126 A)) (MS x125 x126 s11)))))) (exists ((n11 Nat$)) (and (<= 0 (to_int$ n11)) (forall ((x127 Int) (x128 A)) (=> (MS x127 x128 s21) (and (<= 1 x127) (<= x127 (to_int$ n11))))) (forall ((x129 Int) (x130 A) (x131 A)) (=> (and (MS x129 x130 s21) (MS x129 x131 s21)) (= x130 x131))) (forall ((x132 Int)) (=> (and (<= 1 x132) (<= x132 (to_int$ n11))) (exists ((x133 A)) (MS x132 x133 s21)))))) (forall ((x134 Int) (x135 A)) (= (MS x134 x135 x117) (MS x134 x135 s11))) (forall ((x136 Int) (x137 A)) (= (MS x136 x137 x118) (MS x136 x137 s21))) (forall ((x138 Int) (x139 A)) (= (MS x138 x139 x119) (or (exists ((i2 Int)) (and (<= 1 i2) (forall ((x140 Int)) (=> (length s11 x140) (<= i2 x140))) (= x138 i2) (MS i2 x139 s11))) (exists ((i3 Int)) (and (forall ((x141 Int)) (=> (length s11 x141) (<= (+ x141 1) i3))) (forall ((x142 Int) (x143 Int)) (=> (and (length s11 x143) (length s21 x142)) (<= i3 (+ x143 x142)))) (= x138 i3) (exists ((x144 Int)) (and (forall ((x145 Int)) (=> (length s11 x145) (= x144 (- i3 x145)))) (MS x144 x139 s21)))))))))) (and (exists ((s7 PZA)) (and (exists ((n12 Nat$)) (and (<= 0 (to_int$ n12)) (forall ((x146 Int) (x147 A)) (=> (MS x146 x147 s7) (and (<= 1 x146) (<= x146 (to_int$ n12))))) (forall ((x148 Int) (x149 A) (x150 A)) (=> (and (MS x148 x149 s7) (MS x148 x150 s7)) (= x149 x150))) (forall ((x151 Int)) (=> (and (<= 1 x151) (<= x151 (to_int$ n12))) (exists ((x152 A)) (MS x151 x152 s7)))))) (forall ((x153 Int) (x154 A)) (= (MS x153 x154 x117) (MS x153 x154 s7))))) (exists ((s8 PZA)) (and (exists ((n13 Nat$)) (and (<= 0 (to_int$ n13)) (forall ((x155 Int) (x156 A)) (=> (MS x155 x156 s8) (and (<= 1 x155) (<= x155 (to_int$ n13))))) (forall ((x157 Int) (x158 A) (x159 A)) (=> (and (MS x157 x158 s8) (MS x157 x159 s8)) (= x158 x159))) (forall ((x160 Int)) (=> (and (<= 1 x160) (<= x160 (to_int$ n13))) (exists ((x161 A)) (MS x160 x161 s8)))))) (forall ((x162 Int) (x163 A)) (= (MS x162 x163 x118) (MS x162 x163 s8))))) (exists ((s9 PZA)) (and (exists ((n14 Nat$)) (and (<= 0 (to_int$ n14)) (forall ((x164 Int) (x165 A)) (=> (MS x164 x165 s9) (and (<= 1 x164) (<= x164 (to_int$ n14))))) (forall ((x166 Int) (x167 A) (x168 A)) (=> (and (MS x166 x167 s9) (MS x166 x168 s9)) (= x167 x168))) (forall ((x169 Int)) (=> (and (<= 1 x169) (<= x169 (to_int$ n14))) (exists ((x170 A)) (MS x169 x170 s9)))))) (forall ((x171 Int) (x172 A)) (= (MS x171 x172 x119) (MS x171 x172 s9)))))))) (forall ((x173 PZA) (x174 PZA) (x175 PZA) (x176 PZA)) (=> (and (exists ((s12 PZA) (s22 PZA)) (and (exists ((n15 Nat$)) (and (<= 0 (to_int$ n15)) (forall ((x177 Int) (x178 A)) (=> (MS x177 x178 s12) (and (<= 1 x177) (<= x177 (to_int$ n15))))) (forall ((x179 Int) (x180 A) (x181 A)) (=> (and (MS x179 x180 s12) (MS x179 x181 s12)) (= x180 x181))) (forall ((x182 Int)) (=> (and (<= 1 x182) (<= x182 (to_int$ n15))) (exists ((x183 A)) (MS x182 x183 s12)))))) (exists ((n16 Nat$)) (and (<= 0 (to_int$ n16)) (forall ((x184 Int) (x185 A)) (=> (MS x184 x185 s22) (and (<= 1 x184) (<= x184 (to_int$ n16))))) (forall ((x186 Int) (x187 A) (x188 A)) (=> (and (MS x186 x187 s22) (MS x186 x188 s22)) (= x187 x188))) (forall ((x189 Int)) (=> (and (<= 1 x189) (<= x189 (to_int$ n16))) (exists ((x190 A)) (MS x189 x190 s22)))))) (forall ((x191 Int) (x192 A)) (= (MS x191 x192 x173) (MS x191 x192 s12))) (forall ((x193 Int) (x194 A)) (= (MS x193 x194 x174) (MS x193 x194 s22))) (forall ((x195 Int) (x196 A)) (= (MS x195 x196 x175) (or (exists ((i4 Int)) (and (<= 1 i4) (forall ((x197 Int)) (=> (length s12 x197) (<= i4 x197))) (= x195 i4) (MS i4 x196 s12))) (exists ((i5 Int)) (and (forall ((x198 Int)) (=> (length s12 x198) (<= (+ x198 1) i5))) (forall ((x199 Int) (x200 Int)) (=> (and (length s12 x200) (length s22 x199)) (<= i5 (+ x200 x199)))) (= x195 i5) (exists ((x201 Int)) (and (forall ((x202 Int)) (=> (length s12 x202) (= x201 (- i5 x202)))) (MS x201 x196 s22)))))))))) (exists ((s13 PZA) (s23 PZA)) (and (exists ((n17 Nat$)) (and (<= 0 (to_int$ n17)) (forall ((x203 Int) (x204 A)) (=> (MS x203 x204 s13) (and (<= 1 x203) (<= x203 (to_int$ n17))))) (forall ((x205 Int) (x206 A) (x207 A)) (=> (and (MS x205 x206 s13) (MS x205 x207 s13)) (= x206 x207))) (forall ((x208 Int)) (=> (and (<= 1 x208) (<= x208 (to_int$ n17))) (exists ((x209 A)) (MS x208 x209 s13)))))) (exists ((n18 Nat$)) (and (<= 0 (to_int$ n18)) (forall ((x210 Int) (x211 A)) (=> (MS x210 x211 s23) (and (<= 1 x210) (<= x210 (to_int$ n18))))) (forall ((x212 Int) (x213 A) (x214 A)) (=> (and (MS x212 x213 s23) (MS x212 x214 s23)) (= x213 x214))) (forall ((x215 Int)) (=> (and (<= 1 x215) (<= x215 (to_int$ n18))) (exists ((x216 A)) (MS x215 x216 s23)))))) (forall ((x217 Int) (x218 A)) (= (MS x217 x218 x173) (MS x217 x218 s13))) (forall ((x219 Int) (x220 A)) (= (MS x219 x220 x174) (MS x219 x220 s23))) (forall ((x221 Int) (x222 A)) (= (MS x221 x222 x176) (or (exists ((i6 Int)) (and (<= 1 i6) (forall ((x223 Int)) (=> (length s13 x223) (<= i6 x223))) (= x221 i6) (MS i6 x222 s13))) (exists ((i7 Int)) (and (forall ((x224 Int)) (=> (length s13 x224) (<= (+ x224 1) i7))) (forall ((x225 Int) (x226 Int)) (=> (and (length s13 x226) (length s23 x225)) (<= i7 (+ x226 x225)))) (= x221 i7) (exists ((x227 Int)) (and (forall ((x228 Int)) (=> (length s13 x228) (= x227 (- i7 x228)))) (MS x227 x222 s23))))))))))) (forall ((x229 Int) (x230 A)) (= (MS x229 x230 x175) (MS x229 x230 x176))))) (forall ((x231 PZA) (x232 PZA)) (=> (and (exists ((s14 PZA)) (and (exists ((n19 Nat$)) (and (<= 0 (to_int$ n19)) (forall ((x233 Int) (x234 A)) (=> (MS x233 x234 s14) (and (<= 1 x233) (<= x233 (to_int$ n19))))) (forall ((x235 Int) (x236 A) (x237 A)) (=> (and (MS x235 x236 s14) (MS x235 x237 s14)) (= x236 x237))) (forall ((x238 Int)) (=> (and (<= 1 x238) (<= x238 (to_int$ n19))) (exists ((x239 A)) (MS x238 x239 s14)))))) (forall ((x240 Int) (x241 A)) (= (MS x240 x241 x231) (MS x240 x241 s14))))) (exists ((s15 PZA)) (and (exists ((n20 Nat$)) (and (<= 0 (to_int$ n20)) (forall ((x242 Int) (x243 A)) (=> (MS x242 x243 s15) (and (<= 1 x242) (<= x242 (to_int$ n20))))) (forall ((x244 Int) (x245 A) (x246 A)) (=> (and (MS x244 x245 s15) (MS x244 x246 s15)) (= x245 x246))) (forall ((x247 Int)) (=> (and (<= 1 x247) (<= x247 (to_int$ n20))) (exists ((x248 A)) (MS x247 x248 s15)))))) (forall ((x249 Int) (x250 A)) (= (MS x249 x250 x232) (MS x249 x250 s15)))))) (exists ((x251 PZA) (s16 PZA) (s24 PZA)) (and (exists ((n21 Nat$)) (and (<= 0 (to_int$ n21)) (forall ((x252 Int) (x253 A)) (=> (MS x252 x253 s16) (and (<= 1 x252) (<= x252 (to_int$ n21))))) (forall ((x254 Int) (x255 A) (x256 A)) (=> (and (MS x254 x255 s16) (MS x254 x256 s16)) (= x255 x256))) (forall ((x257 Int)) (=> (and (<= 1 x257) (<= x257 (to_int$ n21))) (exists ((x258 A)) (MS x257 x258 s16)))))) (exists ((n22 Nat$)) (and (<= 0 (to_int$ n22)) (forall ((x259 Int) (x260 A)) (=> (MS x259 x260 s24) (and (<= 1 x259) (<= x259 (to_int$ n22))))) (forall ((x261 Int) (x262 A) (x263 A)) (=> (and (MS x261 x262 s24) (MS x261 x263 s24)) (= x262 x263))) (forall ((x264 Int)) (=> (and (<= 1 x264) (<= x264 (to_int$ n22))) (exists ((x265 A)) (MS x264 x265 s24)))))) (forall ((x266 Int) (x267 A)) (= (MS x266 x267 x231) (MS x266 x267 s16))) (forall ((x268 Int) (x269 A)) (= (MS x268 x269 x232) (MS x268 x269 s24))) (forall ((x270 Int) (x271 A)) (= (MS x270 x271 x251) (or (exists ((i8 Int)) (and (<= 1 i8) (forall ((x272 Int)) (=> (length s16 x272) (<= i8 x272))) (= x270 i8) (MS i8 x271 s16))) (exists ((i9 Int)) (and (forall ((x273 Int)) (=> (length s16 x273) (<= (+ x273 1) i9))) (forall ((x274 Int) (x275 Int)) (=> (and (length s16 x275) (length s24 x274)) (<= i9 (+ x275 x274)))) (= x270 i9) (exists ((x276 Int)) (and (forall ((x277 Int)) (=> (length s16 x277) (= x276 (- i9 x277)))) (MS x276 x271 s24))))))))))))) :named hyp10))
(assert (! (forall ((s17 PZA) (s25 PZA)) (=> (and (exists ((n23 Nat$)) (and (<= 0 (to_int$ n23)) (forall ((x278 Int) (x279 A)) (=> (MS x278 x279 s17) (and (<= 1 x278) (<= x278 (to_int$ n23))))) (forall ((x280 Int) (x281 A) (x282 A)) (=> (and (MS x280 x281 s17) (MS x280 x282 s17)) (= x281 x282))) (forall ((x283 Int)) (=> (and (<= 1 x283) (<= x283 (to_int$ n23))) (exists ((x284 A)) (MS x283 x284 s17)))))) (exists ((n24 Nat$)) (and (<= 0 (to_int$ n24)) (forall ((x285 Int) (x286 A)) (=> (MS x285 x286 s25) (and (<= 1 x285) (<= x285 (to_int$ n24))))) (forall ((x287 Int) (x288 A) (x289 A)) (=> (and (MS x287 x288 s25) (MS x287 x289 s25)) (= x288 x289))) (forall ((x290 Int)) (=> (and (<= 1 x290) (<= x290 (to_int$ n24))) (exists ((x291 A)) (MS x290 x291 s25))))))) (exists ((x292 PZA) (x293 Int)) (and (forall ((x294 Int) (x295 A)) (= (MS x294 x295 x292) (or (exists ((i10 Int)) (and (<= 1 i10) (forall ((x296 Int)) (=> (length s17 x296) (<= i10 x296))) (= x294 i10) (MS i10 x295 s17))) (exists ((i11 Int)) (and (forall ((x297 Int)) (=> (length s17 x297) (<= (+ x297 1) i11))) (forall ((x298 Int) (x299 Int)) (=> (and (length s17 x299) (length s25 x298)) (<= i11 (+ x299 x298)))) (= x294 i11) (exists ((x300 Int)) (and (forall ((x301 Int)) (=> (length s17 x301) (= x300 (- i11 x301)))) (MS x300 x295 s25)))))))) (forall ((x302 Int) (x303 Int)) (=> (and (length s17 x303) (length s25 x302)) (= x293 (+ x303 x302)))) (length x292 x293))))) :named hyp11))
(assert (! (forall ((s18 PZA) (s26 PZA)) (=> (and (exists ((n25 Nat$)) (and (<= 0 (to_int$ n25)) (forall ((x304 Int) (x305 A)) (=> (MS x304 x305 s18) (and (<= 1 x304) (<= x304 (to_int$ n25))))) (forall ((x306 Int) (x307 A) (x308 A)) (=> (and (MS x306 x307 s18) (MS x306 x308 s18)) (= x307 x308))) (forall ((x309 Int)) (=> (and (<= 1 x309) (<= x309 (to_int$ n25))) (exists ((x310 A)) (MS x309 x310 s18)))))) (exists ((n26 Nat$)) (and (<= 0 (to_int$ n26)) (forall ((x311 Int) (x312 A)) (=> (MS x311 x312 s26) (and (<= 1 x311) (<= x311 (to_int$ n26))))) (forall ((x313 Int) (x314 A) (x315 A)) (=> (and (MS x313 x314 s26) (MS x313 x315 s26)) (= x314 x315))) (forall ((x316 Int)) (=> (and (<= 1 x316) (<= x316 (to_int$ n26))) (exists ((x317 A)) (MS x316 x317 s26))))))) (forall ((x318 Int)) (= (or (exists ((x319 A)) (exists ((i12 Int)) (and (<= 1 i12) (forall ((x320 Int)) (=> (length s18 x320) (<= i12 x320))) (= x318 i12) (MS i12 x319 s18)))) (exists ((x321 A)) (exists ((i13 Int)) (and (forall ((x322 Int)) (=> (length s18 x322) (<= (+ x322 1) i13))) (forall ((x323 Int) (x324 Int)) (=> (and (length s18 x324) (length s26 x323)) (<= i13 (+ x324 x323)))) (= x318 i13) (exists ((x325 Int)) (and (forall ((x326 Int)) (=> (length s18 x326) (= x325 (- i13 x326)))) (MS x325 x321 s26))))))) (and (<= 1 x318) (forall ((x327 Int) (x328 Int)) (=> (and (length s18 x328) (length s26 x327)) (<= x318 (+ x328 x327))))))))) :named hyp12))
(assert (! (forall ((s19 PZA) (s27 PZA)) (=> (and (exists ((n27 Nat$)) (and (<= 0 (to_int$ n27)) (forall ((x329 Int) (x330 A)) (=> (MS x329 x330 s19) (and (<= 1 x329) (<= x329 (to_int$ n27))))) (forall ((x331 Int) (x332 A) (x333 A)) (=> (and (MS x331 x332 s19) (MS x331 x333 s19)) (= x332 x333))) (forall ((x334 Int)) (=> (and (<= 1 x334) (<= x334 (to_int$ n27))) (exists ((x335 A)) (MS x334 x335 s19)))))) (exists ((n28 Nat$)) (and (<= 0 (to_int$ n28)) (forall ((x336 Int) (x337 A)) (=> (MS x336 x337 s27) (and (<= 1 x336) (<= x336 (to_int$ n28))))) (forall ((x338 Int) (x339 A) (x340 A)) (=> (and (MS x338 x339 s27) (MS x338 x340 s27)) (= x339 x340))) (forall ((x341 Int)) (=> (and (<= 1 x341) (<= x341 (to_int$ n28))) (exists ((x342 A)) (MS x341 x342 s27))))))) (forall ((x343 A)) (= (or (exists ((x344 Int)) (exists ((i14 Int)) (and (<= 1 i14) (forall ((x345 Int)) (=> (length s19 x345) (<= i14 x345))) (= x344 i14) (MS i14 x343 s19)))) (exists ((x346 Int)) (exists ((i15 Int)) (and (forall ((x347 Int)) (=> (length s19 x347) (<= (+ x347 1) i15))) (forall ((x348 Int) (x349 Int)) (=> (and (length s19 x349) (length s27 x348)) (<= i15 (+ x349 x348)))) (= x346 i15) (exists ((x350 Int)) (and (forall ((x351 Int)) (=> (length s19 x351) (= x350 (- i15 x351)))) (MS x350 x343 s27))))))) (or (exists ((x352 Int)) (MS x352 x343 s19)) (exists ((x353 Int)) (MS x353 x343 s27))))))) :named hyp13))
(assert (! (forall ((s110 PZA) (s28 PZA) (i16 Int)) (=> (and (exists ((n29 Nat$)) (and (<= 0 (to_int$ n29)) (forall ((x354 Int) (x355 A)) (=> (MS x354 x355 s110) (and (<= 1 x354) (<= x354 (to_int$ n29))))) (forall ((x356 Int) (x357 A) (x358 A)) (=> (and (MS x356 x357 s110) (MS x356 x358 s110)) (= x357 x358))) (forall ((x359 Int)) (=> (and (<= 1 x359) (<= x359 (to_int$ n29))) (exists ((x360 A)) (MS x359 x360 s110)))))) (exists ((n30 Nat$)) (and (<= 0 (to_int$ n30)) (forall ((x361 Int) (x362 A)) (=> (MS x361 x362 s28) (and (<= 1 x361) (<= x361 (to_int$ n30))))) (forall ((x363 Int) (x364 A) (x365 A)) (=> (and (MS x363 x364 s28) (MS x363 x365 s28)) (= x364 x365))) (forall ((x366 Int)) (=> (and (<= 1 x366) (<= x366 (to_int$ n30))) (exists ((x367 A)) (MS x366 x367 s28)))))) (<= 1 i16) (forall ((x368 Int)) (=> (length s110 x368) (<= i16 x368)))) (or (exists ((i17 Int)) (and (<= 1 i17) (forall ((x369 Int)) (=> (length s110 x369) (<= i17 x369))) (= i16 i17) (exists ((x370 A)) (and (MS i17 x370 s110) (MS i16 x370 s110))))) (exists ((i18 Int)) (and (forall ((x371 Int)) (=> (length s110 x371) (<= (+ x371 1) i18))) (forall ((x372 Int) (x373 Int)) (=> (and (length s110 x373) (length s28 x372)) (<= i18 (+ x373 x372)))) (= i16 i18) (exists ((x374 A)) (and (exists ((x375 Int)) (and (forall ((x376 Int)) (=> (length s110 x376) (= x375 (- i18 x376)))) (MS x375 x374 s28))) (MS i16 x374 s110)))))))) :named hyp14))
(assert (! (forall ((s111 PZA) (s29 PZA) (b PA)) (=> (and (exists ((n31 Nat$)) (and (<= 0 (to_int$ n31)) (forall ((x377 Int) (x378 A)) (=> (MS x377 x378 s111) (and (<= 1 x377) (<= x377 (to_int$ n31))))) (forall ((x379 Int) (x380 A) (x381 A)) (=> (and (MS x379 x380 s111) (MS x379 x381 s111)) (= x380 x381))) (forall ((x382 Int)) (=> (and (<= 1 x382) (<= x382 (to_int$ n31))) (exists ((x383 A)) (MS x382 x383 s111)))))) (exists ((n32 Nat$)) (and (<= 0 (to_int$ n32)) (forall ((x384 Int) (x385 A)) (=> (MS x384 x385 s29) (and (<= 1 x384) (<= x384 (to_int$ n32))))) (forall ((x386 Int) (x387 A) (x388 A)) (=> (and (MS x386 x387 s29) (MS x386 x388 s29)) (= x387 x388))) (forall ((x389 Int)) (=> (and (<= 1 x389) (<= x389 (to_int$ n32))) (exists ((x390 A)) (MS x389 x390 s29)))))) (forall ((x391 A)) (=> (exists ((x392 Int)) (MS x392 x391 s111)) (MS0 x391 b))) (forall ((x393 A)) (=> (exists ((x394 Int)) (MS x394 x393 s29)) (MS0 x393 b)))) (and (forall ((x395 Int) (x396 A)) (=> (or (exists ((i19 Int)) (and (<= 1 i19) (forall ((x397 Int)) (=> (length s111 x397) (<= i19 x397))) (= x395 i19) (MS i19 x396 s111))) (exists ((i20 Int)) (and (forall ((x398 Int)) (=> (length s111 x398) (<= (+ x398 1) i20))) (forall ((x399 Int) (x400 Int)) (=> (and (length s111 x400) (length s29 x399)) (<= i20 (+ x400 x399)))) (= x395 i20) (exists ((x401 Int)) (and (forall ((x402 Int)) (=> (length s111 x402) (= x401 (- i20 x402)))) (MS x401 x396 s29)))))) (and (<= 1 x395) (forall ((x403 Int) (x404 Int)) (=> (and (length s111 x404) (length s29 x403)) (<= x395 (+ x404 x403)))) (MS0 x396 b)))) (forall ((x405 Int) (x406 A) (x407 A)) (=> (and (or (exists ((i21 Int)) (and (<= 1 i21) (forall ((x408 Int)) (=> (length s111 x408) (<= i21 x408))) (= x405 i21) (MS i21 x406 s111))) (exists ((i22 Int)) (and (forall ((x409 Int)) (=> (length s111 x409) (<= (+ x409 1) i22))) (forall ((x410 Int) (x411 Int)) (=> (and (length s111 x411) (length s29 x410)) (<= i22 (+ x411 x410)))) (= x405 i22) (exists ((x412 Int)) (and (forall ((x413 Int)) (=> (length s111 x413) (= x412 (- i22 x413)))) (MS x412 x406 s29)))))) (or (exists ((i23 Int)) (and (<= 1 i23) (forall ((x414 Int)) (=> (length s111 x414) (<= i23 x414))) (= x405 i23) (MS i23 x407 s111))) (exists ((i24 Int)) (and (forall ((x415 Int)) (=> (length s111 x415) (<= (+ x415 1) i24))) (forall ((x416 Int) (x417 Int)) (=> (and (length s111 x417) (length s29 x416)) (<= i24 (+ x417 x416)))) (= x405 i24) (exists ((x418 Int)) (and (forall ((x419 Int)) (=> (length s111 x419) (= x418 (- i24 x419)))) (MS x418 x407 s29))))))) (= x406 x407))) (forall ((x420 Int)) (=> (and (<= 1 x420) (forall ((x421 Int) (x422 Int)) (=> (and (length s111 x422) (length s29 x421)) (<= x420 (+ x422 x421))))) (or (exists ((x423 A)) (exists ((i25 Int)) (and (<= 1 i25) (forall ((x424 Int)) (=> (length s111 x424) (<= i25 x424))) (= x420 i25) (MS i25 x423 s111)))) (exists ((x425 A)) (exists ((i26 Int)) (and (forall ((x426 Int)) (=> (length s111 x426) (<= (+ x426 1) i26))) (forall ((x427 Int) (x428 Int)) (=> (and (length s111 x428) (length s29 x427)) (<= i26 (+ x428 x427)))) (= x420 i26) (exists ((x429 Int)) (and (forall ((x430 Int)) (=> (length s111 x430) (= x429 (- i26 x430)))) (MS x429 x425 s29)))))))))))) :named hyp15))
(assert (! (not (exists ((x431 A) (x432 Int)) (and (forall ((x433 Int)) (=> (length s1 x433) (= x432 (- i x433)))) (MS x432 x431 s2)))) :named goal))
(check-sat)
(exit)
