nat_inputs/nat_fail_logs/smt348629254771220058.out
(error "Parse Error: nat_inputs/smt348629254771220058.smt2:23.361: argument type is not the type of the function's argument type:
argument:  n0
has type:  Nat$
not type: Int
in term : (length s0 n0)")
